
Gurobi 13.0.2 (win64) logging started Thu Jul 23 13:48:43 2026

Set parameter LogFile to value "E:\codes\ExactEBRP\results\gf_gurobi_performance_recovery_round29\stage0_runs\transition__moderate6301_transition__moderate_seed6301__c4_candidate__300s\external\native_logs\L1.0.1.1.0.0.1.1.0_lp.gurobi.log"
Gurobi Optimizer version 13.0.2 build v13.0.2rc1 (win64 - Windows 10.0 (19045.2))

CPU model: 12th Gen Intel(R) Core(TM) i7-12700KF, instruction set [SSE2|AVX|AVX2]
Thread count: 12 physical cores, 20 logical processors, using up to 1 threads

Non-default parameters:
TimeLimit  107.4175496
MIPGap  0
MIPGapAbs  0
LogToConsole  0
Threads  1

Optimize a model with 93027 rows, 18191 columns and 665810 nonzeros (Min)
Model fingerprint: 0x562375ee
Model has 51 linear objective coefficients
Coefficient statistics:
  Matrix range     [7e-03, 2e+04]
  Objective range  [7e-03, 1e+00]
  Bounds range     [2e-01, 4e+03]
  RHS range        [2e-01, 5e+04]

Presolve removed 4701 rows and 255 columns
Presolve time: 0.38s
Presolved: 17932 rows, 106274 columns, 664813 nonzeros

Iteration    Objective       Primal Inf.    Dual Inf.      Time
       0      handle free variables                          0s

Extra simplex iterations after uncrush: 3
   14022    4.8263405e-01   5.908376e+07   0.000000e+00      5s

Extra simplex iterations from dual to original model: 2
   14862    4.8187778e-01   0.000000e+00   0.000000e+00      6s

Solved in 14862 iterations and 5.72 seconds (19.31 work units)
Optimal objective  4.818777764e-01

User-callback calls 15037, time in user-callback 0.00 sec
